\ Model quadratic_copy
\ LP format - for model browsing. Use MPS format to capture full model detail.
Maximize
 
Subject To
 R3: T__tROOT_t_name_S_s_name.firstname >= 2
Bounds
Binaries
 T__tROOT_t_name_S_s_name.firstname
End
